(set-info :smt-lib-version 2.6)
(set-logic QF_NIA)
(set-info :source |
Generated by: Cristina Borralleras, Daniel Larraz, Albert Oliveras, Enric Rodriguez-Carbonell, Albert Rubio
Generated on: 2017-04-27
Generator: VeryMax
Application: Termination proving
Target solver: barcelogic
|)
(set-info :license "https://creativecommons.org/licenses/by/4.0/")
(set-info :category "industrial")
(set-info :status unknown)
(declare-fun Nl2main_x1 () Int)
(declare-fun Nl2main_y1 () Int)
(declare-fun Nl2main_x2 () Int)
(declare-fun Nl2main_y2 () Int)
(declare-fun Nl2main_x3 () Int)
(declare-fun Nl2main_y3 () Int)
(declare-fun lam0n0 () Int)
(declare-fun lam0n1 () Int)
(declare-fun lam0n2 () Int)
(declare-fun lam0n3 () Int)
(declare-fun lam0n4 () Int)
(declare-fun lam0n5 () Int)
(declare-fun lam0n6 () Int)
(declare-fun lam0n7 () Int)
(declare-fun lam0n8 () Int)
(declare-fun lam0n9 () Int)
(declare-fun lam0n10 () Int)
(declare-fun lam0n11 () Int)
(declare-fun Nl2CT1 () Int)
(declare-fun Nl2CT2 () Int)
(declare-fun Nl2CT3 () Int)
(declare-fun lam1n0 () Int)
(declare-fun lam1n1 () Int)
(declare-fun lam1n2 () Int)
(declare-fun lam1n3 () Int)
(declare-fun lam1n4 () Int)
(declare-fun lam1n5 () Int)
(declare-fun lam1n6 () Int)
(declare-fun lam1n7 () Int)
(declare-fun lam1n8 () Int)
(declare-fun lam1n9 () Int)
(declare-fun lam1n10 () Int)
(declare-fun lam1n11 () Int)
(declare-fun lam2n0 () Int)
(declare-fun lam2n1 () Int)
(declare-fun lam2n2 () Int)
(declare-fun lam2n3 () Int)
(declare-fun lam2n4 () Int)
(declare-fun lam2n5 () Int)
(declare-fun lam2n6 () Int)
(declare-fun lam2n7 () Int)
(declare-fun lam2n8 () Int)
(declare-fun lam2n9 () Int)
(declare-fun lam2n10 () Int)
(declare-fun lam2n11 () Int)
(declare-fun lam3n0 () Int)
(declare-fun lam3n1 () Int)
(declare-fun lam3n2 () Int)
(declare-fun lam3n3 () Int)
(declare-fun lam3n4 () Int)
(declare-fun lam3n5 () Int)
(declare-fun lam3n6 () Int)
(declare-fun lam3n7 () Int)
(declare-fun lam3n8 () Int)
(declare-fun lam3n9 () Int)
(declare-fun lam3n10 () Int)
(declare-fun lam3n11 () Int)
(declare-fun lam4n0 () Int)
(declare-fun lam4n1 () Int)
(declare-fun lam5n0 () Int)
(declare-fun lam5n1 () Int)
(declare-fun lam6n0 () Int)
(declare-fun lam6n1 () Int)
(declare-fun main_x () Int)
(declare-fun undef3 () Int)
(declare-fun main_y () Int)
(declare-fun undef4 () Int)
(declare-fun FV_main_x_1 () Int)
(declare-fun FV_main_y_1 () Int)
(declare-fun lam7n0 () Int)
(declare-fun lam7n1 () Int)
(declare-fun lam7n2 () Int)
(declare-fun lam7n3 () Int)
(declare-fun lam7n4 () Int)
(declare-fun lam7n5 () Int)
(declare-fun lam7n6 () Int)
(declare-fun lam7n7 () Int)
(declare-fun lam7n8 () Int)
(declare-fun lam7n9 () Int)
(declare-fun lam7n10 () Int)
(declare-fun lam7n11 () Int)
(declare-fun FV_main_x_2 () Int)
(declare-fun FV_main_y_2 () Int)
(assert ( and ( <= ( - 4 ) Nl2main_x1 ) ( <= Nl2main_x1 4 ) ( <= ( - 4 ) Nl2main_y1 ) ( <= Nl2main_y1 4 ) ( <= ( - 4 ) Nl2main_x2 ) ( <= Nl2main_x2 4 ) ( <= ( - 4 ) Nl2main_y2 ) ( <= Nl2main_y2 4 ) ( <= ( - 4 ) Nl2main_x3 ) ( <= Nl2main_x3 4 ) ( <= ( - 4 ) Nl2main_y3 ) ( <= Nl2main_y3 4 ) ))
(assert ( or ( and ( >= lam0n0 0 ) ( >= lam0n1 0 ) ( >= lam0n2 0 ) ( >= lam0n3 0 ) ( >= lam0n4 0 ) ( >= lam0n5 0 ) ( >= lam0n6 0 ) ( >= lam0n7 0 ) ( >= lam0n8 0 ) ( >= lam0n9 0 ) ( >= lam0n10 0 ) ( >= lam0n11 0 ) ( > ( + ( * 2 lam0n0 ) ( * 2 lam0n1 ) ( * 2 lam0n2 ) ( * 1 lam0n3 ) ( * 1 lam0n4 ) ( * 1 lam0n5 ) ( * 1 lam0n6 ) ( * 1 lam0n7 ) ( * 3 lam0n8 ) ( * Nl2CT1 lam0n9 ) ( * Nl2CT2 lam0n10 ) ( * Nl2CT3 lam0n11 ) ( - 1 ) ) 0 ) ( = ( + ( * ( - 4 ) lam0n0 ) ( * ( - 2 ) lam0n1 ) ( * ( - 3 ) lam0n2 ) ( * 1 lam0n3 ) ( * ( - 1 ) lam0n4 ) ( * ( - 1 ) lam0n5 ) ( * ( - 4 ) lam0n6 ) ( * ( - 2 ) lam0n8 ) ( * Nl2main_x1 lam0n9 ) ( * Nl2main_x2 lam0n10 ) ( * Nl2main_x3 lam0n11 ) ) 0 ) ( = ( + ( * ( - 3 ) lam0n0 ) ( * ( - 1 ) lam0n1 ) ( * ( - 2 ) lam0n2 ) ( * ( - 2 ) lam0n3 ) ( * 1 lam0n5 ) ( * 5 lam0n6 ) ( * ( - 1 ) lam0n7 ) ( * 1 lam0n8 ) ( * Nl2main_y1 lam0n9 ) ( * Nl2main_y2 lam0n10 ) ( * Nl2main_y3 lam0n11 ) ) 0 ) ) ( and ( >= lam1n0 0 ) ( >= lam1n1 0 ) ( >= lam1n2 0 ) ( >= lam1n3 0 ) ( >= lam1n4 0 ) ( >= lam1n5 0 ) ( >= lam1n6 0 ) ( >= lam1n7 0 ) ( >= lam1n8 0 ) ( >= lam1n9 0 ) ( >= lam1n10 0 ) ( >= lam1n11 0 ) ( > ( + ( * 2 lam1n0 ) ( * 2 lam1n1 ) ( * 2 lam1n2 ) ( * 1 lam1n3 ) ( * 1 lam1n4 ) ( * 1 lam1n5 ) ( * 1 lam1n6 ) ( * 1 lam1n7 ) ( * 3 lam1n8 ) ( * Nl2CT1 lam1n9 ) ( * Nl2CT2 lam1n10 ) ( * Nl2CT3 lam1n11 ) ( - 1 ( + ( + Nl2CT1 ( * Nl2main_x1 0 ) ) ( * Nl2main_y1 0 ) ) ) ) 0 ) ( = ( + ( * ( - 4 ) lam1n0 ) ( * ( - 2 ) lam1n1 ) ( * ( - 3 ) lam1n2 ) ( * 1 lam1n3 ) ( * ( - 1 ) lam1n4 ) ( * ( - 1 ) lam1n5 ) ( * ( - 4 ) lam1n6 ) ( * ( - 2 ) lam1n8 ) ( * Nl2main_x1 lam1n9 ) ( * Nl2main_x2 lam1n10 ) ( * Nl2main_x3 lam1n11 ) ( - ( + ( + 0 ( * Nl2main_x1 2 ) ) ( * Nl2main_y1 4 ) ) ) ) 0 ) ( = ( + ( * ( - 3 ) lam1n0 ) ( * ( - 1 ) lam1n1 ) ( * ( - 2 ) lam1n2 ) ( * ( - 2 ) lam1n3 ) ( * 1 lam1n5 ) ( * 5 lam1n6 ) ( * ( - 1 ) lam1n7 ) ( * 1 lam1n8 ) ( * Nl2main_y1 lam1n9 ) ( * Nl2main_y2 lam1n10 ) ( * Nl2main_y3 lam1n11 ) ( - ( + 0 ( * Nl2main_x1 4 ) ) ) ) 0 ) ) ))
(assert ( or ( and ( >= lam0n0 0 ) ( >= lam0n1 0 ) ( >= lam0n2 0 ) ( >= lam0n3 0 ) ( >= lam0n4 0 ) ( >= lam0n5 0 ) ( >= lam0n6 0 ) ( >= lam0n7 0 ) ( >= lam0n8 0 ) ( >= lam0n9 0 ) ( >= lam0n10 0 ) ( >= lam0n11 0 ) ( > ( + ( * 2 lam0n0 ) ( * 2 lam0n1 ) ( * 2 lam0n2 ) ( * 1 lam0n3 ) ( * 1 lam0n4 ) ( * 1 lam0n5 ) ( * 1 lam0n6 ) ( * 1 lam0n7 ) ( * 3 lam0n8 ) ( * Nl2CT1 lam0n9 ) ( * Nl2CT2 lam0n10 ) ( * Nl2CT3 lam0n11 ) ( - 1 ) ) 0 ) ( = ( + ( * ( - 4 ) lam0n0 ) ( * ( - 2 ) lam0n1 ) ( * ( - 3 ) lam0n2 ) ( * 1 lam0n3 ) ( * ( - 1 ) lam0n4 ) ( * ( - 1 ) lam0n5 ) ( * ( - 4 ) lam0n6 ) ( * ( - 2 ) lam0n8 ) ( * Nl2main_x1 lam0n9 ) ( * Nl2main_x2 lam0n10 ) ( * Nl2main_x3 lam0n11 ) ) 0 ) ( = ( + ( * ( - 3 ) lam0n0 ) ( * ( - 1 ) lam0n1 ) ( * ( - 2 ) lam0n2 ) ( * ( - 2 ) lam0n3 ) ( * 1 lam0n5 ) ( * 5 lam0n6 ) ( * ( - 1 ) lam0n7 ) ( * 1 lam0n8 ) ( * Nl2main_y1 lam0n9 ) ( * Nl2main_y2 lam0n10 ) ( * Nl2main_y3 lam0n11 ) ) 0 ) ) ( and ( >= lam2n0 0 ) ( >= lam2n1 0 ) ( >= lam2n2 0 ) ( >= lam2n3 0 ) ( >= lam2n4 0 ) ( >= lam2n5 0 ) ( >= lam2n6 0 ) ( >= lam2n7 0 ) ( >= lam2n8 0 ) ( >= lam2n9 0 ) ( >= lam2n10 0 ) ( >= lam2n11 0 ) ( > ( + ( * 2 lam2n0 ) ( * 2 lam2n1 ) ( * 2 lam2n2 ) ( * 1 lam2n3 ) ( * 1 lam2n4 ) ( * 1 lam2n5 ) ( * 1 lam2n6 ) ( * 1 lam2n7 ) ( * 3 lam2n8 ) ( * Nl2CT1 lam2n9 ) ( * Nl2CT2 lam2n10 ) ( * Nl2CT3 lam2n11 ) ( - 1 ( + ( + Nl2CT2 ( * Nl2main_x2 0 ) ) ( * Nl2main_y2 0 ) ) ) ) 0 ) ( = ( + ( * ( - 4 ) lam2n0 ) ( * ( - 2 ) lam2n1 ) ( * ( - 3 ) lam2n2 ) ( * 1 lam2n3 ) ( * ( - 1 ) lam2n4 ) ( * ( - 1 ) lam2n5 ) ( * ( - 4 ) lam2n6 ) ( * ( - 2 ) lam2n8 ) ( * Nl2main_x1 lam2n9 ) ( * Nl2main_x2 lam2n10 ) ( * Nl2main_x3 lam2n11 ) ( - ( + ( + 0 ( * Nl2main_x2 2 ) ) ( * Nl2main_y2 4 ) ) ) ) 0 ) ( = ( + ( * ( - 3 ) lam2n0 ) ( * ( - 1 ) lam2n1 ) ( * ( - 2 ) lam2n2 ) ( * ( - 2 ) lam2n3 ) ( * 1 lam2n5 ) ( * 5 lam2n6 ) ( * ( - 1 ) lam2n7 ) ( * 1 lam2n8 ) ( * Nl2main_y1 lam2n9 ) ( * Nl2main_y2 lam2n10 ) ( * Nl2main_y3 lam2n11 ) ( - ( + 0 ( * Nl2main_x2 4 ) ) ) ) 0 ) ) ))
(assert ( or ( and ( >= lam0n0 0 ) ( >= lam0n1 0 ) ( >= lam0n2 0 ) ( >= lam0n3 0 ) ( >= lam0n4 0 ) ( >= lam0n5 0 ) ( >= lam0n6 0 ) ( >= lam0n7 0 ) ( >= lam0n8 0 ) ( >= lam0n9 0 ) ( >= lam0n10 0 ) ( >= lam0n11 0 ) ( > ( + ( * 2 lam0n0 ) ( * 2 lam0n1 ) ( * 2 lam0n2 ) ( * 1 lam0n3 ) ( * 1 lam0n4 ) ( * 1 lam0n5 ) ( * 1 lam0n6 ) ( * 1 lam0n7 ) ( * 3 lam0n8 ) ( * Nl2CT1 lam0n9 ) ( * Nl2CT2 lam0n10 ) ( * Nl2CT3 lam0n11 ) ( - 1 ) ) 0 ) ( = ( + ( * ( - 4 ) lam0n0 ) ( * ( - 2 ) lam0n1 ) ( * ( - 3 ) lam0n2 ) ( * 1 lam0n3 ) ( * ( - 1 ) lam0n4 ) ( * ( - 1 ) lam0n5 ) ( * ( - 4 ) lam0n6 ) ( * ( - 2 ) lam0n8 ) ( * Nl2main_x1 lam0n9 ) ( * Nl2main_x2 lam0n10 ) ( * Nl2main_x3 lam0n11 ) ) 0 ) ( = ( + ( * ( - 3 ) lam0n0 ) ( * ( - 1 ) lam0n1 ) ( * ( - 2 ) lam0n2 ) ( * ( - 2 ) lam0n3 ) ( * 1 lam0n5 ) ( * 5 lam0n6 ) ( * ( - 1 ) lam0n7 ) ( * 1 lam0n8 ) ( * Nl2main_y1 lam0n9 ) ( * Nl2main_y2 lam0n10 ) ( * Nl2main_y3 lam0n11 ) ) 0 ) ) ( and ( >= lam3n0 0 ) ( >= lam3n1 0 ) ( >= lam3n2 0 ) ( >= lam3n3 0 ) ( >= lam3n4 0 ) ( >= lam3n5 0 ) ( >= lam3n6 0 ) ( >= lam3n7 0 ) ( >= lam3n8 0 ) ( >= lam3n9 0 ) ( >= lam3n10 0 ) ( >= lam3n11 0 ) ( > ( + ( * 2 lam3n0 ) ( * 2 lam3n1 ) ( * 2 lam3n2 ) ( * 1 lam3n3 ) ( * 1 lam3n4 ) ( * 1 lam3n5 ) ( * 1 lam3n6 ) ( * 1 lam3n7 ) ( * 3 lam3n8 ) ( * Nl2CT1 lam3n9 ) ( * Nl2CT2 lam3n10 ) ( * Nl2CT3 lam3n11 ) ( - 1 ( + ( + Nl2CT3 ( * Nl2main_x3 0 ) ) ( * Nl2main_y3 0 ) ) ) ) 0 ) ( = ( + ( * ( - 4 ) lam3n0 ) ( * ( - 2 ) lam3n1 ) ( * ( - 3 ) lam3n2 ) ( * 1 lam3n3 ) ( * ( - 1 ) lam3n4 ) ( * ( - 1 ) lam3n5 ) ( * ( - 4 ) lam3n6 ) ( * ( - 2 ) lam3n8 ) ( * Nl2main_x1 lam3n9 ) ( * Nl2main_x2 lam3n10 ) ( * Nl2main_x3 lam3n11 ) ( - ( + ( + 0 ( * Nl2main_x3 2 ) ) ( * Nl2main_y3 4 ) ) ) ) 0 ) ( = ( + ( * ( - 3 ) lam3n0 ) ( * ( - 1 ) lam3n1 ) ( * ( - 2 ) lam3n2 ) ( * ( - 2 ) lam3n3 ) ( * 1 lam3n5 ) ( * 5 lam3n6 ) ( * ( - 1 ) lam3n7 ) ( * 1 lam3n8 ) ( * Nl2main_y1 lam3n9 ) ( * Nl2main_y2 lam3n10 ) ( * Nl2main_y3 lam3n11 ) ( - ( + 0 ( * Nl2main_x3 4 ) ) ) ) 0 ) ) ))
(assert ( and ( <= ( + Nl2CT1 ( * Nl2main_x1 FV_main_x_1 ) ( * Nl2main_y1 FV_main_y_1 ) ) 0 ) ( <= ( + Nl2CT2 ( * Nl2main_x2 FV_main_x_1 ) ( * Nl2main_y2 FV_main_y_1 ) ) 0 ) ( <= ( + Nl2CT3 ( * Nl2main_x3 FV_main_x_1 ) ( * Nl2main_y3 FV_main_y_1 ) ) 0 ) ( <= ( + 1 ( * ( - 1 ) FV_main_y_1 ) ) 0 ) ( <= ( + 1 ( * ( - 1 ) FV_main_x_1 ) ) 0 ) ( <= ( + 1 FV_main_x_1 ( * ( - 2 ) FV_main_y_1 ) ) 0 ) ( <= ( + 1 ( * ( - 1 ) FV_main_x_1 ) FV_main_y_1 ) 0 ) ))
(assert ( and ( >= lam7n0 0 ) ( >= lam7n1 0 ) ( >= lam7n2 0 ) ( >= lam7n3 0 ) ( >= lam7n4 0 ) ( >= lam7n5 0 ) ( >= lam7n6 0 ) ( >= lam7n7 0 ) ( >= lam7n8 0 ) ( >= lam7n9 0 ) ( >= lam7n10 0 ) ( >= lam7n11 0 ) ( > ( + ( * 2 lam7n1 ) ( * 2 lam7n2 ) ( * 2 lam7n3 ) ( * 1 lam7n4 ) ( * 1 lam7n5 ) ( * 1 lam7n6 ) ( * 1 lam7n7 ) ( * 3 lam7n8 ) ( * Nl2CT1 lam7n9 ) ( * Nl2CT2 lam7n10 ) ( * Nl2CT3 lam7n11 ) ( - 1 ) ) 0 ) ( = ( + ( * 4 lam7n0 ) ( * ( - 4 ) lam7n1 ) ( * ( - 2 ) lam7n2 ) ( * ( - 3 ) lam7n3 ) ( * 1 lam7n4 ) ( * ( - 1 ) lam7n5 ) ( * ( - 1 ) lam7n6 ) ( * ( - 2 ) lam7n8 ) ( * Nl2main_x1 lam7n9 ) ( * Nl2main_x2 lam7n10 ) ( * Nl2main_x3 lam7n11 ) ) 0 ) ( = ( + ( * ( - 5 ) lam7n0 ) ( * ( - 3 ) lam7n1 ) ( * ( - 1 ) lam7n2 ) ( * ( - 2 ) lam7n3 ) ( * ( - 2 ) lam7n4 ) ( * 1 lam7n6 ) ( * ( - 1 ) lam7n7 ) ( * 1 lam7n8 ) ( * Nl2main_y1 lam7n9 ) ( * Nl2main_y2 lam7n10 ) ( * Nl2main_y3 lam7n11 ) ) 0 ) ))
(assert ( and ( and ( <= ( + Nl2CT1 ( * Nl2main_x1 FV_main_x_2 ) ( * Nl2main_y1 FV_main_y_2 ) ) 0 ) ( <= ( + Nl2CT2 ( * Nl2main_x2 FV_main_x_2 ) ( * Nl2main_y2 FV_main_y_2 ) ) 0 ) ( <= ( + Nl2CT3 ( * Nl2main_x3 FV_main_x_2 ) ( * Nl2main_y3 FV_main_y_2 ) ) 0 ) ) ( and ( <= ( + 2 ( * ( - 4 ) FV_main_x_2 ) ( * ( - 3 ) FV_main_y_2 ) ) 0 ) ( <= ( + 2 ( * ( - 2 ) FV_main_x_2 ) ( * ( - 1 ) FV_main_y_2 ) ) 0 ) ( <= ( + 2 ( * ( - 3 ) FV_main_x_2 ) ( * ( - 2 ) FV_main_y_2 ) ) 0 ) ( <= ( + 1 FV_main_x_2 ( * ( - 2 ) FV_main_y_2 ) ) 0 ) ( <= ( + 1 ( * ( - 1 ) FV_main_x_2 ) ) 0 ) ( <= ( + 1 ( * ( - 1 ) FV_main_x_2 ) FV_main_y_2 ) 0 ) ( <= ( + 1 ( * ( - 4 ) FV_main_x_2 ) ( * 5 FV_main_y_2 ) ) 0 ) ( <= ( + 1 ( * ( - 1 ) FV_main_y_2 ) ) 0 ) ( <= ( + 3 ( * ( - 2 ) FV_main_x_2 ) FV_main_y_2 ) 0 ) ) ))
(check-sat)
(exit)
